6 1
7 1
8 1
9 0
10 2
11 4
12 3
13 4
14 2
5 10
6 14
7 11
8 14
9 10
10 11
11 13
12 11
13 13
14 10
5 24
6 23
7 23
8 23
9 24
10 23
11 24
12 24
13 23
14 23
5 31
6 33
7 32
8 33
9 31
10 34
11 34
12 33
13 34
14 34
5 44
6 42
7 41
8 40
9 41
10 42
11 43
12 42
13 41
14 44
5 52
6 54
7 52
8 54
9 53
10 50
11 54
12 53
13 50
14 50
5 62
6 61
7 63
8 62
9 63
10 63
11 64
12 61
13 64
14 64
5 73
6 71
7 74
8 74
9 71
10 73
11 74
12 73
13 74
14 70
5 82
6 83
7 84
8 83
9 80
10 81
11 80
12 82
13 83
14 83
5 93
6 91
7 94
8 90
9 94
10 90
11 92
12 90
13 93
14 93
5 104
6 103
7 102
8 102
9 101
10 102
11 102
12 103
13 104
14 102
5 110
6 111
7 111
8 112
9 110
10 111
